s td 108 10 117
b 1 1 2 14
b 2 12 13 26
b 3 92 105 106
b 4 104 116 117
b 5 2 3 14 15
b 6 11 12 25 26
b 7 3 4 17 31 45 59 73 87 101 114
b 8 4 5 17 31 45 59 73 87 101 114
b 9 5 17 19 31 45 59 73 87 101 114
b 10 5 19 31 33 45 59 73 87 101 114
b 11 5 7 19 33 45 59 73 87 101 114
b 12 5 6 7 19
b 13 7 19 21 33 45 59 73 87 101 114
b 14 7 21 33 45 47 59 73 87 101 114
b 15 7 21 33 35 47 59 73 87 101 114
b 16 7 21 35 47 59 61 73 87 101 114
b 17 7 21 35 47 49 61 73 87 101 114
b 18 7 21 35 49 61 73 75 87 101 114
b 19 7 21 35 49 61 63 75 87 101 114
b 20 7 21 35 49 63 75 87 89 101 114
b 21 7 21 35 49 63 75 77 89 101 114
b 22 7 21 35 49 63 65 77 89 101 114
b 23 7 21 35 49 51 63 65 77
b 24 7 21 35 37 49 51 63 65
b 25 7 21 23 35 37 49 51 65
b 26 7 11 21 23 35 37 51 65
b 27 7 9 11 21 23 35
b 28 7 8 9 21
b 29 9 10 11 23
b 30 9 21 22 23 35
b 31 11 23 37 39 51 65
b 32 11 23 25 37 39 51
b 33 11 23 24 25 37
b 34 11 25 26 39
b 35 25 37 38 39 51
b 36 39 51 52 65
b 37 23 35 36 37 49
b 38 37 49 50 51 63
b 39 51 63 64 65 77
b 40 65 77 89 101 102 114
b 41 65 77 89 90 102 114
b 42 65 77 78 90 102 114
b 43 78 90 102 114 116
b 44 78 90 102 103 116
b 45 78 90 91 103 116
b 46 102 114 115 116
b 47 63 75 76 77 89
b 48 75 87 88 89 101
b 49 49 61 62 63 75
b 50 61 73 74 75 87
b 51 35 47 48 49 61
b 52 47 59 60 61 73
b 53 21 33 34 35 47
b 54 33 45 46 47 59
b 55 7 19 20 21 33
b 56 19 31 32 33 45
b 57 5 17 18 19 31
b 58 3 17 31 45 59 73 87 101 113 114
b 59 3 17 31 45 59 73 87 99 101 113
b 60 3 17 31 45 59 73 85 87 99 113
b 61 3 17 31 45 59 71 73 85 99 113
b 62 3 17 31 45 57 59 71 85 99 113
b 63 3 17 31 43 45 57 71 85 99 113
b 64 3 17 29 31 43 57 71 85 99 113
b 65 3 17 29 43 57 71 85 99 111 113
b 66 3 17 29 43 57 71 85 97 99 111
b 67 3 17 29 43 57 71 83 85 97 111
b 68 3 17 29 43 57 69 71 83 97 111
b 69 3 17 29 43 55 57 69 83 97 111
b 70 3 17 29 41 43 55 69 83 97 111
b 71 3 17 27 29 41 55 69 83 97 111
b 72 3 15 17 27 29 41
b 73 3 14 15 27
b 74 3 15 16 17 29
b 75 15 27 28 29 41
b 76 27 41 53 55 69 83 97 111
b 77 27 40 41 53
b 78 41 53 55 67 69 83 97 111
b 79 41 53 54 55 67
b 80 53 55 67 69 81 83 97 111
b 81 53 67 69 81 83 95 97 111
b 82 53 67 81 83 95 97 108 111
b 83 53 67 79 81 95 108
b 84 53 66 67 79
b 85 67 79 81 93 95 108
b 86 67 79 80 81 93
b 87 79 81 93 94 95 108
b 88 79 93 94 106 108
b 89 94 106 107 108
b 90 83 95 96 97 108 111
b 91 96 97 108 109 111
b 92 97 109 110 111
b 93 69 81 82 83 95
b 94 55 67 68 69 81
b 95 29 41 42 43 55
b 96 43 55 56 57 69
b 97 57 69 70 71 83
b 98 71 83 84 85 97
b 99 85 97 98 99 111
b 100 99 111 112 113
b 101 17 29 30 31 43
b 102 31 43 44 45 57
b 103 45 57 58 59 71
b 104 59 71 72 73 85
b 105 73 85 86 87 99
b 106 87 99 100 101 113
b 107 79 92 93 106
b 108 91 103 104 116
1 5
2 6
3 107
4 108
5 73
6 34
7 8
7 58
8 9
9 10
9 57
10 11
10 56
11 12
11 13
13 14
13 55
14 15
14 54
15 16
15 53
16 17
16 52
17 18
17 51
18 19
18 50
19 20
19 49
20 21
20 48
21 22
21 47
22 23
22 40
23 24
23 39
24 25
24 38
25 26
25 37
26 27
26 31
27 28
27 29
27 30
31 32
31 36
32 33
32 34
32 35
40 41
41 42
42 43
43 44
43 46
44 45
45 108
58 59
59 60
59 106
60 61
60 105
61 62
61 104
62 63
62 103
63 64
63 102
64 65
64 101
65 66
65 100
66 67
66 99
67 68
67 98
68 69
68 97
69 70
69 96
70 71
70 95
71 72
71 76
72 73
72 74
72 75
76 77
76 78
78 79
78 80
80 81
80 94
81 82
81 93
82 83
82 90
83 84
83 85
85 86
85 87
87 88
88 107
88 89
90 91
91 92
